seed= 2052018 ;
N= 10 ;
M= 2 ;
F= 2 ;
K= 4 ;
T= 18 ;

p=[ 4 4 4 4 4 4 4 4 4 4 ];
r=[ 1 1 1 0 0 2 0 2 0 2 ];
d=[ 3 4 0 4 0 0 0 4 0 2 ];
s=[ 1 1 1 1 1 1 1 1 1 1 ];
w=[ 5 3 1 4 4 5 1 5 2 2 ];
f=[ 1 1 1 1 1 2 2 2 2 2 ];

e1=[ 10 10 10 10 10 10 10 10 10 8 8 8 8 8 8 8 8 8 ];
e2=[ 10 10 10 10 10 10 9 9 9 8 8 8 8 8 8 9 9 9 ];